data;
param nombreJob := 7;
param nombreRessource := 3;
param duree := 1 2 2 10 3 9 4 3 5 7 6 1 7 6;
param capaciteRessource := 1 6 2 12 3 19;
param besoinRessource : 1 2 3 :=
                    1   3 6 7
                    2   3 7 10
                    3   3 4 2
                    4   3 3 5
                    5   2 3 10
                    6   1 4 3
                    7   3 4 3;
end;

